100
32
24
6
21
29
13
4
30
25
22
25
15
8
11
13
9
19
10
4
10
17
1
1
1
3
5
4
18
1
7
2
1
2
3
3
17
3
3
2
1
23
17
1
1
2
3
1
20
1
3
3
7
1
1
1
1
8
3
18
1
17
1
2
4
3
1
8
17
1
1
3
7
4
1
1
2
17
1
3
1
1
4
1
2
3
19
2
1
3
3
1
3
1
3
3
1
1
1
2
2
2